c Random CNF formula
p cnf 100 20
72 56 -53 0
59 -91 -85 0
14 -45 -36 0
-14 91 70 0
-62 57 74 0
77 -50 -51 0
52 -5 1 0
-73 32 13 0
2 -44 31 0
24 -56 -98 0
38 7 88 0
-90 48 -60 0
-41 53 99 0
-49 -99 17 0
-67 18 -59 0
6 9 15 0
87 -62 85 0
-100 -69 -63 0
72 69 -14 0
9 -69 -19 0
